Version identifier: 22.1.0.0 | 2022-03-09 | 1a383f8ce
CPXPARAM_Threads                                 1
CPXPARAM_MIP_Strategy_VariableSelect             3
CPXPARAM_TimeLimit                               599.99996682100004
1 of 1 MIP starts provided solutions.
MIP start 'm1' defined initial solution with objective 1.0000.
Tried aggregator 1 time.
MIP Presolve eliminated 20 rows and 0 columns.
MIP Presolve modified 2 coefficients.
Reduced MIP has 999 rows, 2000 columns, and 22270 nonzeros.
Reduced MIP has 2000 binaries, 0 generals, 0 SOSs, and 0 indicators.
Presolve time = 0.02 sec. (11.12 ticks)
Probing time = 0.00 sec. (2.90 ticks)
Tried aggregator 1 time.
Detecting symmetries...
Reduced MIP has 999 rows, 2000 columns, and 22270 nonzeros.
Reduced MIP has 2000 binaries, 0 generals, 0 SOSs, and 0 indicators.
Presolve time = 0.02 sec. (12.66 ticks)
Probing time = 0.00 sec. (2.90 ticks)
Clique table members: 494.
MIP emphasis: balance optimality and feasibility.
MIP search method: dynamic search.
Parallel mode: none, using 1 thread.
Root relaxation solution time = 0.20 sec. (157.23 ticks)

        Nodes                                         Cuts/
   Node  Left     Objective  IInf  Best Integer    Best Bound    ItCnt     Gap

*     0+    0                            1.0000     2000.0000              --- 
      0     0      100.0000   431        1.0000      100.0000     1632     --- 
*     0+    0                           48.0000      100.0000           108.33%
      0     0      100.0000    86       48.0000    Cliques: 1     1794  108.33%
      0     0      100.0000   327       48.0000      Cuts: 65     2852  108.33%
*     0+    0                           94.0000      100.0000             6.38%
*     0+    0                           97.0000      100.0000             3.09%
      0     0        cutoff             97.0000      100.0000     2852    3.09%
Detecting symmetries...
      0     2      100.0000    37       97.0000      100.0000     2852    3.09%
Elapsed time = 2.86 sec. (2591.60 ticks, tree = 0.01 MB, solutions = 4)
      2     4      100.0000    28       97.0000      100.0000     4382    3.09%
      3     5      100.0000   135       97.0000      100.0000     5466    3.09%
      5     7      100.0000    26       97.0000      100.0000     5827    3.09%
      6     8      100.0000   313       97.0000      100.0000     9490    3.09%
      8    10      100.0000   123       97.0000      100.0000    13413    3.09%
      9    11      100.0000   302       97.0000      100.0000    16218    3.09%
     11    13      100.0000   134       97.0000      100.0000    17680    3.09%
     13    15      100.0000   126       97.0000      100.0000    18125    3.09%
     15    17      100.0000   125       97.0000      100.0000    18264    3.09%
     20    22      100.0000   162       97.0000      100.0000    23394    3.09%
Elapsed time = 7.40 sec. (7129.35 ticks, tree = 0.09 MB, solutions = 4)
     26    28      100.0000   102       97.0000      100.0000    26309    3.09%
     32    34      100.0000    99       97.0000      100.0000    29928    3.09%
     38    40      100.0000    58       97.0000      100.0000    34168    3.09%
     43    45      100.0000   283       97.0000      100.0000    39858    3.09%
     48    50      100.0000   221       97.0000      100.0000    43987    3.09%
     52    54      100.0000   161       97.0000      100.0000    49329    3.09%
     57    59      100.0000   209       97.0000      100.0000    54190    3.09%
     61    63       99.9139   196       97.0000      100.0000    60930    3.09%
     68    70      100.0000   168       97.0000      100.0000    65300    3.09%
     74    76      100.0000   128       97.0000      100.0000    68271    3.09%
Elapsed time = 18.30 sec. (17524.83 ticks, tree = 0.40 MB, solutions = 4)
     80    82      100.0000   144       97.0000      100.0000    72592    3.09%
     89    91      100.0000   124       97.0000      100.0000    76293    3.09%
     98   100       99.7838   119       97.0000      100.0000    81141    3.09%
    107   109       99.8078   183       97.0000      100.0000    85696    3.09%
    115   117       99.0000   110       97.0000      100.0000    90819    3.09%
    127   126       99.0000   115       97.0000      100.0000    94472    3.09%
    141   136       98.0000    64       97.0000      100.0000    98839    3.09%
    148   141      100.0000   130       97.0000      100.0000   101724    3.09%
    155   148      100.0000   193       97.0000      100.0000   105113    3.09%
    161   154      100.0000   136       97.0000      100.0000   107566    3.09%
Elapsed time = 29.24 sec. (27817.94 ticks, tree = 1.07 MB, solutions = 4)
    167   160      100.0000   145       97.0000      100.0000   110309    3.09%
    174   167      100.0000   162       97.0000      100.0000   113101    3.09%
    180   173      100.0000   313       97.0000      100.0000   115955    3.09%
    187   180      100.0000   161       97.0000      100.0000   119730    3.09%
    195   188      100.0000   124       97.0000      100.0000   123655    3.09%
    205   194       99.7299   164       97.0000      100.0000   129121    3.09%
    218   200       98.9308   164       97.0000      100.0000   133470    3.09%
    234   206       98.3333    89       97.0000      100.0000   135973    3.09%
    252   214       99.8511   123       97.0000      100.0000   138785    3.09%
    270   232       99.7941    86       97.0000      100.0000   139334    3.09%
Elapsed time = 39.91 sec. (38001.66 ticks, tree = 1.76 MB, solutions = 4)
    288   250       99.7586   171       97.0000      100.0000   139896    3.09%
    303   264       99.7241   125       97.0000      100.0000   140394    3.09%
*   310+  138                           99.0000      100.0000             1.01%
    314   137      100.0000   308       99.0000      100.0000   144986    1.01%
    321   144      100.0000   179       99.0000      100.0000   147295    1.01%
    329   152      100.0000    67       99.0000      100.0000   151104    1.01%
    340   161      100.0000   101       99.0000      100.0000   154164    1.01%
    352   169      100.0000   101       99.0000      100.0000   157831    1.01%
*   362     0      integral     0      100.0000      100.0000   160355    0.00%

Clique cuts applied:  13
Zero-half cuts applied:  3

Root node processing (before b&c):
  Real time             =    2.85 sec. (2580.48 ticks)
Sequential b&c:
  Real time             =   45.23 sec. (43189.13 ticks)
                          ------------
Total (root+branch&cut) =   48.08 sec. (45769.61 ticks)
Primal:	100
Dual:	100
Status:	Optimal
Time:	48.09
Sequence:
	16
	19
	3
	5
	19
	6
	18
	17
	12
	5
	14
	2
	16
	4
	9
	10
	13
	7
	18
	4
	9
	10
	0
	19
	5
	1
	17
	1
	5
	9
	15
	10
	9
	4
	5
	9
	13
	5
	6
	19
	16
	2
	17
	16
	2
	14
	10
	3
	14
	16
	0
	15
	8
	1
	15
	11
	12
	4
	8
	6
	13
	11
	1
	15
	8
	3
	13
	11
	12
	15
	8
	6
	13
	11
	12
	4
	8
	3
	13
	5
	9
	15
	12
	5
	14
	0
	16
	17
	1
	5
	14
	2
	5
	19
	1
	5
	17
	1
	10
	19
